c Result of efficient AIG-to-CNF conversion using package CNF
p cnf 432 1640
2 403 404 3 -4 0
-2 -403 0
-2 4 0
-2 -3 0
-2 -404 0
-3 400 401 402 0
3 -400 0
3 -402 0
3 -401 0
-4 -405 236 0
-4 5 188 236 0
4 -236 0
4 405 -5 0
4 405 -188 0
5 427 6 -79 0
5 6 -16 -79 0
-5 -6 0
-5 79 0
-5 -427 16 0
-6 408 7 9 12 0
6 -408 0
6 -12 0
6 -9 0
6 -7 0
-7 406 407 8 0
7 -8 0
7 -407 0
7 -406 0
-8 418 419 0
8 -418 0
8 -419 0
-9 420 421 10 0
9 -10 0
9 -421 0
9 -420 0
-10 422 423 11 0
10 -11 0
10 -423 0
10 -422 0
-11 424 425 426 0
11 -424 0
11 -426 0
11 -425 0
-12 413 414 13 15 0
12 -413 0
12 -15 0
12 -13 0
12 -414 0
-13 409 410 14 0
13 -14 0
13 -410 0
13 -409 0
-14 411 412 0
14 -411 0
14 -412 0
-15 415 416 417 0
15 -415 0
15 -417 0
15 -416 0
16 428 -17 0
-16 -428 0
-16 17 0
17 429 -18 0
-17 -429 0
-17 18 0
18 430 -19 0
18 -430 -69 0
-18 -430 69 0
-18 430 19 0
19 -431 -55 0
19 431 -20 0
-19 431 20 0
-19 -431 55 0
-20 402 21 0
20 -402 0
20 -21 0
21 -22 -34 0
21 427 -34 0
-21 34 0
-21 -427 22 0
22 428 -23 0
22 -428 -30 0
-22 -428 30 0
-22 428 23 0
23 429 -24 0
23 -429 -27 0
-23 -429 27 0
-23 429 24 0
24 430 -25 0
24 -430 -26 0
-24 -430 26 0
-24 430 25 0
25 -419 -431 0
25 -418 431 0
-25 418 431 0
-25 419 -431 0
26 -421 -431 0
26 -420 431 0
-26 420 431 0
-26 421 -431 0
27 430 -28 0
27 -430 -29 0
-27 -430 29 0
-27 430 28 0
28 -423 -431 0
28 -422 431 0
-28 422 431 0
-28 423 -431 0
29 -425 -431 0
29 -424 431 0
-29 424 431 0
-29 425 -431 0
30 429 -31 0
30 -429 430 -431 0
-30 -429 -430 0
-30 429 31 0
-30 -429 431 0
31 430 -32 0
31 -430 -33 0
-31 -430 33 0
-31 430 32 0
32 -427 -431 0
32 -426 431 0
-32 426 431 0
-32 427 -431 0
33 -429 -431 0
33 -428 431 0
-33 428 431 0
-33 429 -431 0
34 -35 50 0
34 -427 50 0
-34 -50 0
-34 427 35 0
35 428 -36 0
35 -428 -43 0
-35 -428 43 0
-35 428 36 0
36 429 -37 0
36 -429 -40 0
-36 -429 40 0
-36 429 37 0
37 430 -38 0
37 -430 -39 0
-37 -430 39 0
-37 430 38 0
38 -403 -431 0
38 -402 431 0
-38 402 431 0
-38 403 -431 0
39 -405 -431 0
39 -404 431 0
-39 404 431 0
-39 405 -431 0
40 430 -41 0
40 -430 -42 0
-40 -430 42 0
-40 430 41 0
41 -407 -431 0
41 -406 431 0
-41 406 431 0
-41 407 -431 0
42 -409 -431 0
42 -408 431 0
-42 408 431 0
-42 409 -431 0
43 429 -44 0
43 -429 -47 0
-43 -429 47 0
-43 429 44 0
44 430 -45 0
44 -430 -46 0
-44 -430 46 0
-44 430 45 0
45 -411 -431 0
45 -410 431 0
-45 410 431 0
-45 411 -431 0
46 -413 -431 0
46 -412 431 0
-46 412 431 0
-46 413 -431 0
47 430 -48 0
47 -430 -49 0
-47 -430 49 0
-47 430 48 0
48 -415 -431 0
48 -414 431 0
-48 414 431 0
-48 415 -431 0
49 -417 -431 0
49 -416 431 0
-49 416 431 0
-49 417 -431 0
-50 7 51 53 54 0
50 -54 0
50 -7 0
50 -53 0
50 -51 0
-51 405 3 10 52 0
51 -405 0
51 -52 0
51 -10 0
51 -3 0
-52 403 404 0
52 -403 0
52 -404 0
-53 408 13 15 0
53 -15 0
53 -13 0
53 -408 0
-54 413 414 420 421 0
54 -421 0
54 -420 0
54 -413 0
54 -414 0
-55 401 56 0
55 -401 0
55 -56 0
56 427 -34 0
56 -34 -57 0
-56 34 0
-56 -427 57 0
57 428 -58 0
57 -428 -65 0
-57 -428 65 0
-57 428 58 0
58 429 -59 0
58 -429 -62 0
-58 -429 62 0
-58 429 59 0
59 430 -60 0
59 -430 -61 0
-59 -430 61 0
-59 430 60 0
60 -418 -431 0
60 -417 431 0
-60 417 431 0
-60 418 -431 0
61 -420 -431 0
61 -419 431 0
-61 419 431 0
-61 420 -431 0
62 430 -63 0
62 -430 -64 0
-62 -430 64 0
-62 430 63 0
63 -422 -431 0
63 -421 431 0
-63 421 431 0
-63 422 -431 0
64 -424 -431 0
64 -423 431 0
-64 423 431 0
-64 424 -431 0
65 429 -66 0
65 -429 430 431 0
-65 -429 -430 0
-65 429 66 0
-65 -429 -431 0
66 430 -67 0
66 -430 -68 0
-66 -430 68 0
-66 430 67 0
67 -426 -431 0
67 -425 431 0
-67 425 431 0
-67 426 -431 0
68 -428 -431 0
68 -427 431 0
-68 427 431 0
-68 428 -431 0
69 431 -70 0
-69 -431 0
-69 70 0
-70 400 71 0
70 -400 0
70 -71 0
71 427 -34 0
71 -34 -72 0
-71 34 0
-71 -427 72 0
72 428 -73 0
72 -428 -76 0
-72 -428 76 0
-72 428 73 0
73 429 -74 0
73 -429 -75 0
-73 -429 75 0
-73 429 74 0
74 -430 -25 0
74 430 -49 0
-74 430 49 0
-74 -430 25 0
75 430 -26 0
75 -430 -28 0
-75 -430 28 0
-75 430 26 0
76 429 -77 0
76 -429 -78 0
-76 -429 78 0
-76 429 77 0
77 430 -29 0
77 -430 -32 0
-77 -430 32 0
-77 430 29 0
-78 429 430 -431 0
-78 428 430 431 0
78 -430 0
78 -428 431 0
78 -429 -431 0
-79 427 -428 80 0
-79 427 428 132 0
79 -427 0
79 -428 -80 0
79 428 -132 0
80 429 -81 0
80 -429 -108 0
-80 -429 108 0
-80 429 81 0
81 430 -82 0
81 -430 -83 0
-81 -430 83 0
-81 430 82 0
82 -410 431 0
82 -409 -431 0
-82 410 431 0
-82 409 -431 0
83 -431 -91 0
83 431 -84 0
-83 431 84 0
-83 -431 91 0
-84 408 85 0
84 -408 0
84 -85 0
85 -427 50 -90 0
85 427 50 -86 0
-85 -50 0
-85 -427 90 0
-85 427 86 0
-86 428 87 0
-86 -428 73 0
86 -428 -73 0
86 428 -87 0
87 429 -88 0
87 -429 -89 0
-87 -429 89 0
-87 429 88 0
88 430 -42 0
88 -430 -45 0
-88 -430 45 0
-88 430 42 0
89 430 -46 0
89 -430 -48 0
-89 -430 48 0
-89 430 46 0
90 428 -76 0
-90 -428 0
-90 76 0
-91 407 92 0
91 -407 0
91 -92 0
92 -427 50 -105 0
92 427 50 -93 0
-92 -50 0
-92 -427 105 0
-92 427 93 0
-93 428 94 0
-93 -428 101 0
93 -428 -101 0
93 428 -94 0
-94 429 98 0
-94 -429 95 0
94 -429 -95 0
94 429 -98 0
95 430 -96 0
95 -430 -97 0
-95 -430 97 0
-95 430 96 0
96 -412 -431 0
96 -411 431 0
-96 411 431 0
-96 412 -431 0
97 -414 -431 0
97 -413 431 0
-97 413 431 0
-97 414 -431 0
98 430 -99 0
98 -430 -100 0
-98 -430 100 0
-98 430 99 0
99 -408 -431 0
99 -407 431 0
-99 407 431 0
-99 408 -431 0
100 -410 -431 0
100 -409 431 0
-100 409 431 0
-100 410 -431 0
101 429 -102 0
101 -429 -104 0
-101 -429 104 0
-101 429 102 0
102 -430 -60 0
102 430 -103 0
-102 430 103 0
-102 -430 60 0
103 -416 -431 0
103 -415 431 0
-103 415 431 0
-103 416 -431 0
104 430 -61 0
104 -430 -63 0
-104 -430 63 0
-104 430 61 0
105 428 -106 0
-105 -428 0
-105 106 0
106 -429 -430 0
106 429 -107 0
106 -429 -68 0
-106 429 107 0
-106 -429 430 68 0
107 430 -64 0
107 -430 -67 0
-107 -430 67 0
-107 430 64 0
108 430 -109 0
108 -430 -110 0
-108 -430 110 0
-108 430 109 0
109 -406 431 0
109 -405 -431 0
-109 406 431 0
-109 405 -431 0
110 -431 -120 0
110 431 -111 0
-110 431 111 0
-110 -431 120 0
-111 404 112 0
111 -404 0
111 -112 0
112 -427 50 -117 0
112 427 50 -113 0
-112 -50 0
-112 -427 117 0
-112 427 113 0
-113 428 114 0
-113 -428 116 0
113 -428 -116 0
113 428 -114 0
-114 429 115 0
-114 -429 88 0
114 -429 -88 0
114 429 -115 0
115 430 -39 0
115 -430 -41 0
-115 -430 41 0
-115 430 39 0
116 -429 -74 0
116 429 -89 0
-116 429 89 0
-116 -429 74 0
117 428 -118 0
117 -428 -119 0
-117 -428 119 0
-117 428 118 0
118 429 -75 0
118 -429 -77 0
-118 -429 77 0
-118 429 75 0
119 429 -430 0
119 -428 429 431 0
-119 -429 0
-119 430 -431 0
-119 428 430 0
-120 403 121 0
120 -403 0
120 -121 0
121 -427 50 -128 0
121 427 50 -122 0
-121 -50 0
-121 -427 128 0
-121 427 122 0
-122 428 123 0
-122 -428 127 0
122 -428 -127 0
122 428 -123 0
-123 -429 98 0
-123 429 124 0
123 -429 -98 0
123 429 -124 0
-124 430 126 0
-124 -430 125 0
124 -430 -125 0
124 430 -126 0
125 -406 -431 0
125 -405 431 0
-125 405 431 0
-125 406 -431 0
126 -404 -431 0
126 -403 431 0
-126 403 431 0
-126 404 -431 0
127 429 -95 0
127 -429 -102 0
-127 -429 102 0
-127 429 95 0
128 428 -129 0
128 -428 -130 0
-128 -428 130 0
-128 428 129 0
129 429 -104 0
129 -429 -107 0
-129 -429 107 0
-129 429 104 0
130 429 -131 0
-130 -429 0
-130 131 0
131 -429 -430 0
131 430 -68 0
131 -430 -431 0
-131 430 68 0
-131 429 -430 431 0
132 429 -133 0
132 -429 -167 0
-132 -429 167 0
-132 429 133 0
133 430 -134 0
133 -430 -153 0
-133 -430 153 0
-133 430 134 0
134 -431 -146 0
134 431 -135 0
-134 431 135 0
-134 -431 146 0
-135 418 136 0
135 -418 0
135 -136 0
136 -22 137 138 140 0
-136 -140 0
-136 22 0
-136 -138 0
-136 -137 0
-137 400 412 413 0
137 -400 0
137 -413 0
137 -412 0
-138 403 404 411 139 0
138 -139 0
138 -411 0
138 -403 0
138 -404 0
-139 409 410 0
139 -409 0
139 -410 0
-140 401 402 141 144 0
140 -401 0
140 -144 0
140 -141 0
140 -402 0
-141 407 408 142 143 0
141 -407 0
141 -143 0
141 -142 0
141 -408 0
-142 414 421 427 0
142 -414 0
142 -427 0
142 -421 0
-143 405 406 0
143 -405 0
143 -406 0
-144 10 145 0
144 -10 0
144 -145 0
-145 420 8 15 0
145 -15 0
145 -8 0
145 -420 0
-146 417 147 0
146 -417 0
146 -147 0
147 411 -57 148 150 0
-147 -411 0
-147 -150 0
-147 -148 0
-147 57 0
-148 401 402 149 0
148 -149 0
148 -402 0
148 -401 0
-149 407 408 409 410 0
149 -410 0
149 -409 0
149 -407 0
149 -408 0
-150 400 151 142 152 0
150 -400 0
150 -152 0
150 -142 0
150 -151 0
-151 412 413 0
151 -412 0
151 -413 0
-152 403 404 143 144 0
152 -403 0
152 -144 0
152 -143 0
152 -404 0
153 -431 -161 0
153 431 -154 0
-153 431 154 0
-153 -431 161 0
-154 416 155 0
154 -416 0
154 -155 0
155 156 142 157 -158 0
-155 158 0
-155 -156 0
-155 -157 0
-155 -142 0
-156 409 410 411 0
156 -409 0
156 -411 0
156 -410 0
-157 406 407 51 0
157 -51 0
157 -407 0
157 -406 0
158 159 -72 151 160 0
-158 -160 0
-158 -159 0
-158 -151 0
-158 72 0
-159 408 15 0
159 -408 0
159 -15 0
-160 420 8 0
160 -420 0
160 -8 0
-161 415 162 0
161 -415 0
161 -162 0
162 428 -101 163 0
162 -428 -106 163 0
-162 -163 0
-162 -428 106 0
-162 428 101 0
-163 406 148 164 165 0
163 -406 0
163 -165 0
163 -164 0
163 -148 0
-164 405 10 14 52 0
164 -405 0
164 -52 0
164 -14 0
164 -10 0
-165 400 427 15 166 0
165 -400 0
165 -166 0
165 -15 0
165 -427 0
-166 8 54 0
166 -8 0
166 -54 0
167 430 -168 0
167 -430 -179 0
-167 -430 179 0
-167 430 168 0
168 -413 -431 0
168 431 -169 0
168 -431 -175 0
-168 431 169 0
-168 413 -431 175 0
-169 414 170 0
169 -414 0
169 -170 0
170 -427 50 -174 0
170 427 50 -171 0
-170 -50 0
-170 -427 174 0
-170 427 171 0
-171 428 173 0
-171 -428 172 0
171 -428 -172 0
171 428 -173 0
172 429 -27 0
172 -429 -31 0
-172 -429 31 0
-172 429 27 0
173 -429 -24 0
173 429 -47 0
-173 429 47 0
-173 -429 24 0
174 428 429 430 -431 0
-174 431 0
-174 -430 0
-174 -428 0
-174 -429 0
175 428 163 -177 0
175 -428 163 -176 0
-175 -163 0
-175 -428 176 0
-175 428 177 0
176 429 -62 0
176 -429 -66 0
-176 -429 66 0
-176 429 62 0
177 -429 -59 0
177 429 -178 0
-177 429 178 0
-177 -429 59 0
178 430 -97 0
178 -430 -103 0
-178 -430 103 0
-178 430 97 0
179 -431 -184 0
179 431 -180 0
-179 431 180 0
-179 -431 184 0
-180 412 181 0
180 -412 0
180 -181 0
181 -427 50 -183 0
181 427 50 -182 0
-181 -50 0
-181 -427 183 0
-181 427 182 0
-182 -428 118 0
-182 428 116 0
182 428 -116 0
182 -428 -118 0
183 428 429 -430 0
-183 430 0
-183 -429 0
-183 -428 0
-184 411 185 0
184 -411 0
184 -185 0
185 -427 50 -187 0
185 427 50 -186 0
-185 -50 0
-185 -427 187 0
-185 427 186 0
-186 -428 129 0
-186 428 127 0
186 428 -127 0
186 -428 -129 0
187 428 -130 0
-187 -428 0
-187 130 0
-188 -6 0
-188 189 -233 0
-188 189 226 0
188 6 -189 0
188 6 -226 233 0
189 427 -193 0
189 428 -190 -193 0
-189 193 0
-189 -427 190 0
-189 -427 -428 0
190 429 -191 0
-190 -429 0
-190 191 0
191 430 -192 0
-191 -430 0
-191 192 0
192 -431 -70 0
192 431 -55 0
-192 431 55 0
-192 -431 70 0
-193 427 -428 194 0
-193 427 428 216 0
193 -427 0
193 -428 -194 0
193 428 -216 0
194 429 -195 0
194 -429 -208 0
-194 -429 208 0
-194 429 195 0
195 430 -196 0
195 -430 -202 0
-195 -430 202 0
-195 430 196 0
196 -431 -84 0
196 -409 431 0
196 431 -197 0
-196 -431 84 0
-196 409 431 197 0
197 -427 50 -201 0
197 427 50 -198 0
-197 -50 0
-197 -427 201 0
-197 427 198 0
-198 428 199 0
-198 -428 58 0
198 -428 -58 0
198 428 -199 0
199 -429 -178 0
199 429 -200 0
-199 429 200 0
-199 -429 178 0
200 -430 -96 0
200 430 -100 0
-200 430 100 0
-200 -430 96 0
201 428 -65 0
-201 -428 0
-201 65 0
202 -406 -431 0
202 431 -91 0
202 -431 -203 0
-202 431 91 0
-202 406 -431 203 0
203 -427 50 -206 0
203 427 50 -204 0
-203 -50 0
-203 -427 206 0
-203 427 204 0
-204 -428 173 0
-204 428 205 0
204 -428 -173 0
204 428 -205 0
-205 -429 44 0
-205 429 40 0
205 429 -40 0
205 -429 -44 0
206 428 -172 0
206 -428 -207 0
-206 -428 207 0
-206 428 172 0
207 429 430 -431 0
-207 431 0
-207 -430 0
-207 -429 0
208 430 -209 0
208 -430 -215 0
-208 -430 215 0
-208 430 209 0
209 -431 -111 0
209 -405 431 0
209 431 -210 0
-209 -431 111 0
-209 405 431 210 0
210 -427 213 0
210 -428 213 0
210 -211 213 0
-210 -213 0
-210 427 428 211 0
211 -429 -200 0
211 429 -212 0
-211 429 212 0
-211 -429 200 0
212 -430 -99 0
212 430 -125 0
-212 430 125 0
-212 -430 99 0
-213 428 50 214 0
-213 50 -177 214 0
213 -50 0
213 -214 0
213 -428 177 0
214 -427 -428 0
214 -427 176 0
-214 427 0
-214 428 -176 0
215 431 -120 0
215 -431 -20 0
-215 -431 20 0
-215 431 120 0
216 429 -217 0
216 -429 -220 0
-216 -429 220 0
-216 429 217 0
217 430 -218 0
217 -430 -219 0
-217 -430 219 0
-217 430 218 0
218 -431 -154 0
218 431 -146 0
-218 431 146 0
-218 -431 154 0
219 -431 -169 0
219 431 -161 0
-219 431 161 0
-219 -431 169 0
220 430 -221 0
220 -430 -222 0
-220 -430 222 0
-220 430 221 0
221 -431 -180 0
221 -413 431 0
-221 -431 180 0
-221 413 431 0
222 -410 -431 0
222 431 -184 0
222 -431 -223 0
-222 431 184 0
-222 410 -431 223 0
223 -427 50 -225 0
223 427 50 -224 0
-223 -50 0
-223 -427 225 0
-223 427 224 0
-224 428 43 0
-224 -428 23 0
224 -428 -23 0
224 428 -43 0
225 428 -30 0
-225 -428 0
-225 30 0
-226 427 -428 227 0
-226 427 428 230 0
226 -427 0
226 -428 -227 0
226 428 -230 0
227 429 -228 0
227 -429 -229 0
-227 -429 229 0
-227 429 228 0
228 430 -83 0
228 -430 -109 0
-228 -430 109 0
-228 430 83 0
229 -430 -19 0
229 430 -110 0
-229 430 110 0
-229 -430 19 0
230 429 -231 0
230 -429 -232 0
-230 -429 232 0
-230 429 231 0
231 430 -153 0
231 -430 -168 0
-231 -430 168 0
-231 430 153 0
232 -430 -82 0
232 430 -179 0
-232 430 179 0
-232 -430 82 0
233 -427 -428 0
233 -427 234 0
-233 427 0
-233 428 -234 0
234 429 -235 0
-234 -429 0
-234 235 0
235 430 -69 0
-235 -430 0
-235 69 0
-236 237 393 0
-236 237 -391 0
-236 -143 237 0
236 -237 0
236 143 391 -393 0
237 238 239 -358 0
237 238 239 -241 0
-237 -238 0
-237 -239 0
-237 241 358 0
-238 11 143 149 0
238 -11 0
238 -143 0
238 -149 0
-239 8 14 54 240 0
239 -240 0
239 -8 0
239 -54 0
239 -14 0
-240 422 423 15 0
240 -15 0
240 -423 0
240 -422 0
-241 242 279 297 327 0
241 -279 0
241 -297 0
241 -242 0
241 -327 0
242 -427 -243 272 0
242 427 -243 268 0
-242 243 0
-242 -427 -272 0
-242 427 -268 0
-243 -427 244 0
-243 427 247 0
243 427 -247 0
243 -427 -244 0
-244 428 246 0
-244 -428 245 0
244 -428 -245 0
244 428 -246 0
245 -429 -18 0
245 429 -108 0
-245 429 108 0
-245 -429 18 0
246 -429 -81 0
246 429 -167 0
-246 429 167 0
-246 -429 81 0
-247 428 256 0
-247 -428 248 0
247 -428 -248 0
247 428 -256 0
248 -429 -133 0
248 429 -249 0
-248 429 249 0
-248 -429 133 0
249 430 -250 0
249 -430 -251 0
-249 -430 251 0
-249 430 250 0
250 -422 431 0
250 -421 -431 0
-250 422 431 0
-250 421 -431 0
251 -419 -431 0
251 431 -252 0
251 -431 -254 0
-251 431 252 0
-251 419 -431 254 0
-252 420 253 0
252 -420 0
252 -253 0
253 -117 163 0
-253 117 0
-253 -163 0
254 10 -128 138 255 0
-254 -255 0
-254 -10 0
-254 -138 0
-254 128 0
-255 3 151 141 145 0
255 -145 0
255 -3 0
255 -141 0
255 -151 0
256 -429 -257 0
256 429 -430 -264 0
-256 -429 257 0
-256 429 430 0
-256 429 264 0
257 430 -258 0
257 -430 -259 0
-257 -430 259 0
-257 430 258 0
258 -426 431 0
258 -425 -431 0
-258 426 431 0
-258 425 -431 0
259 -431 -262 0
259 431 -260 0
-259 431 260 0
-259 -431 262 0
-260 424 261 0
260 -424 0
260 -261 0
261 -90 163 0
-261 90 0
-261 -163 0
-262 423 263 0
262 -423 0
262 -263 0
263 -105 163 0
-263 105 0
-263 -163 0
264 -427 -431 0
264 431 -265 0
264 -431 -267 0
-264 431 265 0
-264 427 -431 267 0
-265 428 266 0
265 -428 0
265 -266 0
266 428 429 -430 163 0
-266 -428 0
-266 -163 0
-266 430 0
-266 -429 0
267 163 -187 0
-267 -163 0
-267 187 0
268 428 -269 0
268 -428 -270 0
-268 -428 270 0
-268 428 269 0
269 -429 -263 0
269 429 -266 0
-269 429 266 0
-269 -429 263 0
270 429 -271 0
270 -429 -430 -155 0
-270 -429 430 0
-270 429 271 0
-270 -429 155 0
271 431 -136 0
271 -431 -147 0
-271 -431 147 0
-271 431 136 0
272 428 -273 0
272 -428 -276 0
-272 -428 276 0
-272 428 273 0
273 429 -181 0
273 -429 -274 0
-273 -429 274 0
-273 429 181 0
274 -92 -275 0
274 431 -275 0
-274 275 0
-274 -431 92 0
-275 431 85 0
275 -431 0
275 -85 0
276 -429 -430 -278 0
276 429 -430 -277 0
-276 430 0
-276 -429 278 0
-276 429 277 0
277 431 -112 0
277 -431 -121 0
-277 -431 121 0
-277 431 112 0
278 431 -71 0
-278 -431 0
-278 71 0
-279 -427 280 285 0
-279 427 281 285 0
279 -285 0
279 427 -281 0
279 -427 -280 0
280 428 -227 0
280 -428 -234 0
-280 -428 234 0
-280 428 227 0
-281 428 282 0
-281 230 282 0
281 -282 0
281 -428 -230 0
282 428 -429 -284 0
282 428 429 -283 0
-282 -428 0
-282 -429 284 0
-282 429 283 0
283 -430 -250 0
283 430 -259 0
-283 430 259 0
-283 -430 250 0
284 -430 -134 0
284 430 -251 0
-284 430 251 0
-284 -430 134 0
285 -427 -286 296 0
285 427 -286 294 0
-285 286 0
-285 -427 -296 0
-285 427 -294 0
-286 -427 287 0
-286 427 290 0
286 -427 -287 0
286 427 -290 0
287 428 -288 0
287 -428 -289 0
-287 -428 289 0
-287 428 288 0
288 -429 -228 0
288 429 -232 0
-288 429 232 0
-288 -429 228 0
289 429 -229 0
289 -429 -235 0
-289 -429 235 0
-289 429 229 0
-290 428 293 0
-290 -428 291 0
-290 428 -292 0
290 -428 -291 0
290 428 292 -293 0
291 -429 -231 0
291 429 -284 0
-291 429 284 0
-291 -429 231 0
292 -429 283 0
-292 429 0
-292 -283 0
-293 429 -430 258 0
-293 429 430 264 0
293 -429 0
293 -430 -258 0
293 430 -264 0
294 -429 -155 0
294 429 -295 0
-294 429 295 0
-294 -429 155 0
295 431 -253 0
295 -431 -254 0
-295 -431 254 0
-295 431 253 0
296 429 -277 0
296 -429 430 -278 0
-296 -429 -430 0
-296 429 277 0
-296 -429 278 0
297 -427 -298 319 0
297 427 -304 319 0
-297 -319 0
-297 -427 298 0
-297 427 304 0
298 428 -299 0
298 -428 -302 0
-298 -428 302 0
-298 428 299 0
299 429 -300 0
299 -429 -301 0
-299 -429 301 0
-299 429 300 0
300 -430 -196 0
300 430 -222 0
-300 430 222 0
-300 -430 196 0
301 430 -202 0
301 -430 -209 0
-301 -430 209 0
-301 430 202 0
302 429 -303 0
-302 -429 0
-302 303 0
303 -430 -192 0
303 430 -215 0
-303 430 215 0
-303 -430 192 0
-304 428 309 0
-304 305 309 0
304 -309 0
304 -428 -305 0
305 429 -306 0
305 -429 -308 0
-305 -429 308 0
-305 429 306 0
306 -430 -218 0
306 430 -307 0
-306 430 307 0
-306 -430 218 0
307 -431 -135 0
307 -419 431 0
-307 -431 135 0
-307 419 431 0
308 430 -219 0
308 -430 -221 0
-308 -430 221 0
-308 430 219 0
309 428 -429 -315 0
309 428 429 -310 0
-309 -428 0
-309 -429 315 0
-309 429 310 0
310 430 -311 0
310 -430 -313 0
-310 -430 313 0
-310 430 311 0
311 -427 431 0
311 -426 -431 0
311 -431 -312 0
-311 427 431 0
-311 426 -431 312 0
312 163 -225 0
-312 -163 0
-312 225 0
313 -431 -260 0
313 -425 431 0
313 431 -314 0
-313 -431 260 0
-313 425 431 314 0
314 163 -201 0
-314 -163 0
-314 201 0
315 430 -316 0
315 -430 -318 0
-315 -430 318 0
-315 430 316 0
316 -422 -431 0
316 431 -262 0
316 -431 -317 0
-316 431 262 0
-316 422 -431 317 0
317 163 -206 0
-317 -163 0
-317 206 0
318 -431 -252 0
318 -421 431 0
-318 -431 252 0
-318 421 431 0
319 -428 -277 0
319 428 -320 0
-319 428 320 0
-319 -428 277 0
320 429 -321 0
320 -429 -324 0
-320 -429 324 0
-320 429 321 0
321 430 -322 0
321 -430 -323 0
-321 -430 323 0
-321 430 322 0
322 431 -185 0
322 -431 -223 0
-322 -431 223 0
-322 431 185 0
323 -431 -85 0
323 431 -197 0
-323 431 197 0
-323 -431 85 0
324 430 -325 0
324 -430 -275 326 0
-324 -430 275 0
-324 430 325 0
-324 -430 -326 0
325 431 -92 0
325 -431 -203 0
-325 -431 203 0
-325 431 92 0
326 -431 112 0
-326 431 0
-326 -112 0
-327 -427 328 333 0
-327 427 329 333 0
327 -333 0
327 427 -329 0
327 -427 -328 0
328 -428 -190 0
328 428 -194 0
-328 428 194 0
-328 -428 190 0
-329 428 330 0
-329 216 330 0
329 -330 0
329 -428 -216 0
330 428 -429 -332 0
330 428 429 -331 0
-330 -428 0
-330 -429 332 0
-330 429 331 0
331 430 -313 0
331 -430 -316 0
-331 -430 316 0
-331 430 313 0
332 -430 -307 0
332 430 -318 0
-332 430 318 0
-332 -430 307 0
333 -427 -334 344 0
333 427 -337 344 0
-333 -344 0
-333 427 337 0
-333 -427 334 0
-334 428 336 0
-334 -428 335 0
334 -428 -335 0
334 428 -336 0
335 429 -301 0
335 -429 -303 0
-335 -429 303 0
-335 429 301 0
336 -429 -300 0
336 429 -308 0
-336 429 308 0
-336 -429 300 0
-337 428 340 0
-337 -428 338 0
-337 428 -339 0
337 -428 -338 0
337 428 339 -340 0
338 -429 -306 0
338 429 -315 0
-338 429 315 0
-338 -429 306 0
339 -429 310 0
-339 429 0
-339 -310 0
-340 341 342 0
-340 430 342 0
340 -342 0
340 -430 -341 0
341 -431 -265 0
341 -429 431 0
-341 -431 265 0
-341 429 431 0
-342 429 -163 0
-342 -428 429 0
-342 429 343 0
342 -429 0
342 428 -343 163 0
343 430 -431 0
-343 -430 0
-343 431 0
344 -427 -351 0
344 427 -345 348 0
-344 427 345 0
-344 -427 351 0
-344 427 -348 0
-345 428 -346 0
-345 428 267 342 0
345 -428 0
345 -267 346 0
345 -342 346 0
346 -429 -430 347 0
346 -429 430 312 0
-346 429 0
-346 -430 -347 0
-346 430 -312 0
347 -431 -261 0
347 431 -314 0
-347 431 314 0
-347 -431 261 0
348 -428 -429 349 0
348 -428 429 254 0
-348 428 0
-348 -429 -349 0
-348 429 -254 0
349 -430 -350 0
349 430 -431 -136 0
-349 -430 350 0
-349 430 136 0
-349 430 431 0
350 431 -147 0
350 -431 -162 0
-350 -431 162 0
-350 431 147 0
351 428 -352 0
351 -428 -354 0
-351 -428 354 0
-351 428 352 0
352 -429 -321 0
352 429 -353 0
-352 429 353 0
-352 -429 321 0
353 430 -170 0
353 -430 -431 -185 0
-353 -430 185 0
-353 430 170 0
-353 -430 431 0
354 429 -324 0
354 -429 -355 0
-354 -429 355 0
-354 429 324 0
355 430 -356 0
355 -430 -357 0
-355 -430 357 0
-355 430 356 0
356 -431 -21 0
356 431 -121 0
-356 431 121 0
-356 -431 21 0
357 431 -56 0
357 -431 -71 0
-357 -431 71 0
-357 431 56 0
-358 359 372 378 384 0
358 -359 0
358 -384 0
358 -378 0
358 -372 0
359 -427 -360 370 0
359 427 -360 368 0
-359 360 0
-359 -427 -370 0
-359 427 -368 0
-360 -427 361 0
-360 427 364 0
360 427 -364 0
360 -427 -361 0
-361 428 363 0
-361 -428 362 0
361 -428 -362 0
361 428 -363 0
362 -429 -191 0
362 429 -208 0
-362 429 208 0
-362 -429 191 0
363 -429 -195 0
363 429 -220 0
-363 429 220 0
-363 -429 195 0
-364 428 367 0
-364 -428 365 0
-364 428 -366 0
364 -428 -365 0
364 428 366 -367 0
365 -429 -217 0
365 429 -332 0
-365 429 332 0
-365 -429 217 0
366 -429 331 0
-366 429 0
-366 -331 0
-367 429 -430 311 0
-367 429 430 341 0
367 -429 0
367 -430 -311 0
367 430 -341 0
368 -428 -155 0
368 428 -369 0
-368 428 369 0
-368 -428 155 0
369 -430 -263 0
369 430 -347 0
-369 430 347 0
-369 -430 263 0
370 428 -371 0
370 -428 430 -357 0
-370 -428 -430 0
-370 428 371 0
-370 -428 357 0
371 -430 -274 0
371 430 -323 0
-371 430 323 0
-371 -430 274 0
-372 373 376 0
-372 -427 373 377 0
372 -373 0
372 -376 -377 0
372 427 -376 0
-373 -427 374 0
-373 427 375 0
373 -427 -374 0
373 427 -375 0
374 428 -245 0
-374 -428 0
-374 245 0
-375 428 248 0
-375 -428 246 0
375 -428 -246 0
375 428 -248 0
-376 427 -428 288 0
-376 427 428 291 0
376 -427 0
376 -428 -288 0
376 428 -291 0
377 428 -289 0
-377 -428 0
-377 289 0
-378 427 379 383 0
-378 -427 379 382 0
378 -379 0
378 -427 -382 0
378 427 -383 0
379 -380 -381 0
379 427 -381 0
-379 381 0
-379 -427 380 0
380 428 -302 0
-380 -428 0
-380 302 0
-381 427 -428 299 0
-381 427 428 305 0
381 -427 0
381 -428 -299 0
381 428 -305 0
382 428 -335 0
-382 -428 0
-382 335 0
-383 428 338 0
-383 -428 336 0
383 -428 -336 0
383 428 -338 0
-384 385 389 0
-384 -427 385 390 0
384 -385 0
384 -389 -390 0
384 427 -389 0
-385 -427 386 0
-385 427 387 388 0
385 -427 -386 0
385 427 -388 0
385 427 -387 0
386 -428 -17 0
386 428 -80 0
-386 428 80 0
-386 -428 17 0
387 -428 -132 0
-387 428 0
-387 132 0
388 428 429 -257 0
388 428 -429 -249 0
-388 -428 0
-388 -429 249 0
-388 429 257 0
-389 427 -428 363 0
-389 427 428 365 0
389 -427 0
389 -428 -363 0
389 428 -365 0
390 428 -362 0
-390 -428 0
-390 362 0
-391 413 414 144 392 0
391 -413 0
391 -392 0
391 -144 0
391 -414 0
-392 421 427 14 149 0
392 -421 0
392 -149 0
392 -14 0
392 -427 0
-393 394 396 398 399 0
393 -399 0
393 -394 0
393 -398 0
393 -396 0
-394 377 380 390 395 0
394 -395 0
394 -390 0
394 -377 0
394 -380 0
-395 374 382 0
395 -374 0
395 -382 0
-396 -351 397 0
-396 334 397 0
396 -397 0
396 -334 351 0
-397 244 -296 0
-397 -272 287 0
-397 244 287 0
-397 -272 -296 0
397 -244 272 0
397 -287 296 0
-398 16 280 -370 0
-398 16 280 361 0
398 -16 0
398 -280 0
398 -361 370 0
-399 298 328 386 0
-399 -319 328 386 0
399 -386 0
399 -328 0
399 -298 319 0
-432 0
2 0

